100
0   401   401
1   402   401
2   402   402
3   402   402
4   401   401
5   402   401
6   402   402
7   401   402
8   402   401
9   401   402
10   401   401
11   201   201
12   202   201
13   202   201
14   201   202
15   202   201
16   202   201
17   201   202
18   202   201
19   202   201
20   201   202
21   201   202
22   102   101
23   102   102
24   102   102
25   101   102
26   101   102
27   102   101
28   102   102
29   101   102
30   101   101
31   102   102
32   102   101
33   52   51
34   52   52
35   51   51
36   51   51
37   51   51
38   52   52
39   52   52
40   52   51
41   52   51
42   51   52
43   51   52
44   27   26
45   27   27
46   27   27
47   27   26
48   27   27
49   26   26
50   26   26
51   26   27
52   26   26
53   26   26
54   27   26
55   14   13
56   14   13
57   13   14
58   14   13
59   13   13
60   14   13
61   14   14
62   14   14
63   14   14
64   13   13
65   14   14
66   8   8
67   7   8
68   7   8
69   7   8
70   7   7
71   7   8
72   7   7
73   7   8
74   8   7
75   8   7
76   7   8
77   5   5
78   4   5
79   4   4
80   4   5
81   4   4
82   5   5
83   4   5
84   5   4
85   4   4
86   4   5
87   4   4
88   2   1
89   2   1
90   1   2
91   1   2
92   1   2
93   2   2
94   1   2
95   2   2
96   1   1
97   1   2
98   1   2
99   2   1
800
